sat

(objectives
 ((bvadd PriceProv6 (bvadd PriceProv5 (bvadd PriceProv4 (bvadd PriceProv3 (bvadd PriceProv1 PriceProv2))))) (_ bv11611 32))
)
;; statistics
(
 :cnf-variables 812
 :cnf-literals 2409
 :cnf-clauses 1102
 :sat-checks 14
 :sat-restarts 34
 :sat-decisions 15243
 :sat-random-decisions 10
 :sat-propagations 38807581
 :sat-theory-propagations 0
 :sat-watched-clauses-visited 44039119
 :sat-binary-watched-clauses-visited 26132966
 :sat-conflicts 7353
 :sat-theory-conflicts 0
 :theory-necessary-interface-equalities 0
 :theory-extra-interface-equalities 0
 :euf-total-calls 16703
 :euf-complete-calls 10
 :euf-conflicts 0
 :euf-implications 0
 :euf-explanations 0
 :euf-egraph-nodes-created 8403
 :euf-egraph-nodes-deleted 6152
 :euf-num-asserted-equalities 307491
 :euf-num-asserted-inequalities 171907
 :euf-num-merges 662352
 :euf-num-merges-undone 662352
 :euf-num-atoms-retold 1280
 :la-total-calls 16703
 :la-complete-calls 10
 :la-conflicts 0
 :la-implications 0
 :la-explanations 0
 :la-num-equalities-split 0
 :la-num-tableau-rows 0
 :la-num-tableau-variables 0
 :bv-total-calls 16703
 :bv-complete-calls 10
 :bv-conflicts 0
 :bv-implications 0
 :bv-explanations 0
 :fp-total-calls 16703
 :fp-complete-calls 10
 :fp-conflicts 0
 :fp-implications 0
 :fp-explanations 0
 :arr-total-calls 16703
 :arr-complete-calls 10
 :arr-conflicts 0
 :arr-implications 0
 :arr-explanations 0
 :arr-write-lemmas-added 0
 :arr-row-lemmas-added 0
 :arr-ext-lemmas-added 0
 :arr-const-lemmas-added 0
 :na-total-calls 16703
 :na-complete-calls 10
 :na-conflicts 0
 :na-implications 0
 :na-explanations 0
 :na-num_nonlinear_multiplications 0
 :na-num_axiom_checks 0
 :na-num_zero_lemmas 0
 :na-num_sign_lemmas 0
 :na-num_neutral_lemmas 0
 :na-num_proportionality_lemmas 0
 :na-num_bound_lemmas 0
 :na-num_tangent_lemmas 0
 :na-num_monotonicity_lemmas 0
 :na-num_sat_checks 0
 :na-axiom_check_time 0.000
 :na-sat_check_time 0.000
 :time-seconds 3.876
 :memory-mb 41.057
)
